50
324 621 9 983 823 1000 264 200 55 194 25 692 366 816 761 350 167 348 31 649 190 149 889 438 947 981 664 250 148 247 737 512 298 18 352 393 70 250 296 416 494 566 850 295 95 304 217 576 477 322 
324 621 9 981 822 999 264 198 54 192 24 690 366 816 759 348 165 348 30 648 189 147 888 438 945 981 663 249 147 246 735 510 297 18 351 393 69 249 294 414 492 564 849 294 93 303 216 576 477 321 
10454
